(set-logic QF_FP)
(set-info :source |Random FP created by PyMPF|)
(set-info :category random)
(set-info :status unsat)
(declare-const x Float32)
(assert (= x ((_ to_fp 8 24) #xFF7FFFFF)))
(declare-const y Float32)
(assert (= y ((_ to_fp 8 24) #x238A6230)))
(declare-const z Float32)
(assert (= z (_ -zero 8 24)))
(declare-const result Float32)
(assert (= result (fp.fma RTP x y z)))
(assert (not (= result ((_ to_fp 8 24) #xE38A622F))))
(check-sat)
(exit)
